DIMACS_lns/graph-1000-195.col
p edge 1000 1848
e 1 327
e 1 156
e 1 198
e 1 732
e 2 539
e 2 112
e 2 712
e 2 424
e 2 365
e 4 479
e 4 122
e 4 262
e 4 351
e 4 878
e 6 313
e 6 325
e 6 503
e 7 335
e 7 174
e 7 592
e 8 506
e 8 514
e 8 639
e 8 661
e 8 730
e 9 517
e 9 484
e 9 395
e 9 161
e 9 200
e 9 464
e 10 339
e 10 915
e 10 17
e 10 180
e 11 994
e 11 858
e 11 815
e 11 450
e 11 608
e 12 440
e 12 87
e 12 887
e 12 832
e 12 548
e 12 835
e 12 651
e 13 164
e 13 687
e 13 542
e 13 998
e 14 433
e 14 241
e 14 50
e 16 508
e 16 704
e 16 359
e 16 681
e 17 827
e 17 295
e 17 884
e 17 415
e 17 787
e 19 392
e 19 341
e 19 625
e 19 570
e 19 701
e 19 971
e 20 690
e 20 591
e 20 206
e 21 681
e 21 419
e 21 507
e 21 932
e 21 286
e 21 54
e 21 388
e 22 874
e 22 737
e 22 187
e 22 97
e 22 287
e 22 491
e 22 666
e 22 179
e 24 818
e 24 184
e 24 710
e 24 779
e 24 919
e 25 260
e 25 950
e 25 296
e 25 224
e 25 275
e 25 690
e 25 514
e 25 129
e 26 295
e 26 940
e 26 660
e 26 746
e 26 125
e 27 298
e 27 859
e 27 312
e 27 50
e 27 373
e 27 398
e 27 518
e 28 40
e 28 286
e 28 765
e 28 926
e 31 48
e 31 337
e 31 139
e 31 567
e 33 62
e 33 598
e 33 715
e 34 218
e 34 673
e 34 759
e 35 985
e 35 183
e 35 602
e 35 749
e 35 460
e 36 515
e 36 873
e 36 697
e 36 891
e 36 972
e 38 144
e 38 920
e 38 120
e 38 387
e 38 605
e 38 394
e 38 470
e 39 976
e 39 697
e 39 130
e 39 93
e 39 369
e 40 687
e 40 114
e 40 831
e 40 832
e 41 855
e 41 720
e 41 765
e 41 727
e 41 113
e 41 499
e 42 729
e 42 770
e 42 341
e 44 505
e 44 235
e 44 468
e 44 379
e 44 738
e 44 781
e 47 292
e 47 790
e 47 142
e 48 119
e 48 567
e 48 860
e 49 93
e 49 272
e 49 622
e 49 645
e 50 1000
e 50 63
e 51 355
e 51 532
e 51 251
e 51 737
e 51 148
e 51 755
e 52 506
e 52 528
e 52 812
e 53 599
e 53 251
e 53 185
e 53 820
e 53 525
e 53 307
e 54 911
e 54 310
e 54 730
e 56 911
e 56 541
e 56 446
e 56 998
e 56 925
e 57 660
e 57 125
e 57 705
e 57 427
e 57 888
e 57 574
e 58 292
e 58 987
e 58 137
e 58 657
e 59 659
e 59 80
e 59 326
e 59 199
e 59 938
e 59 901
e 60 711
e 60 114
e 60 599
e 60 749
e 62 94
e 62 964
e 62 233
e 62 112
e 62 722
e 62 140
e 62 138
e 62 541
e 62 714
e 63 915
e 63 672
e 64 695
e 64 990
e 64 437
e 64 483
e 67 407
e 67 818
e 67 165
e 67 331
e 67 588
e 68 958
e 68 100
e 68 431
e 69 665
e 69 211
e 69 164
e 69 140
e 69 646
e 69 568
e 69 851
e 71 258
e 71 412
e 71 369
e 71 99
e 74 234
e 74 285
e 74 523
e 76 576
e 76 665
e 76 277
e 76 673
e 77 392
e 77 116
e 77 986
e 77 754
e 77 429
e 77 850
e 78 714
e 78 134
e 78 981
e 80 867
e 80 923
e 81 935
e 81 647
e 81 198
e 81 983
e 82 431
e 82 946
e 82 433
e 82 894
e 82 405
e 82 753
e 84 855
e 84 668
e 84 670
e 85 339
e 85 627
e 85 463
e 85 446
e 86 375
e 86 960
e 86 391
e 87 119
e 87 89
e 87 810
e 88 420
e 88 592
e 88 577
e 88 819
e 89 808
e 89 673
e 89 337
e 89 210
e 89 748
e 90 232
e 90 169
e 90 781
e 90 699
e 90 771
e 90 174
e 90 663
e 92 886
e 92 523
e 92 768
e 92 703
e 93 376
e 93 109
e 93 875
e 93 392
e 93 287
e 93 587
e 93 673
e 94 112
e 94 920
e 94 813
e 94 741
e 94 131
e 94 638
e 95 285
e 95 490
e 95 478
e 95 983
e 95 687
e 95 132
e 95 685
e 96 359
e 96 430
e 96 764
e 96 324
e 96 444
e 96 133
e 97 325
e 97 140
e 97 564
e 97 149
e 97 214
e 97 723
e 98 164
e 98 774
e 98 289
e 98 508
e 99 748
e 99 292
e 99 251
e 99 832
e 99 341
e 100 284
e 100 651
e 100 903
e 100 174
e 102 657
e 102 591
e 102 738
e 104 517
e 104 158
e 104 530
e 105 489
e 105 432
e 105 970
e 105 438
e 107 728
e 107 388
e 107 925
e 107 311
e 107 551
e 107 639
e 107 484
e 108 152
e 108 178
e 108 302
e 108 349
e 108 931
e 108 190
e 109 992
e 109 795
e 112 898
e 112 289
e 112 561
e 113 135
e 113 470
e 113 608
e 113 776
e 113 573
e 114 167
e 114 985
e 116 580
e 116 619
e 116 388
e 116 740
e 116 377
e 116 410
e 116 138
e 117 862
e 117 800
e 117 403
e 117 552
e 117 682
e 119 621
e 120 953
e 120 537
e 120 599
e 120 450
e 120 613
e 121 865
e 121 661
e 121 580
e 121 203
e 121 594
e 122 203
e 122 235
e 122 571
e 122 178
e 122 785
e 123 863
e 123 753
e 123 477
e 123 271
e 123 497
e 123 312
e 123 691
e 123 971
e 125 677
e 125 308
e 125 305
e 125 767
e 126 457
e 126 512
e 126 291
e 126 345
e 127 755
e 127 542
e 127 669
e 128 736
e 128 149
e 128 936
e 129 807
e 129 199
e 129 439
e 129 446
e 129 784
e 129 809
e 129 621
e 129 501
e 130 159
e 130 693
e 130 551
e 130 669
e 131 964
e 131 176
e 131 598
e 131 294
e 131 161
e 131 952
e 132 207
e 132 188
e 132 140
e 132 924
e 132 191
e 133 140
e 133 878
e 133 872
e 133 538
e 134 853
e 134 588
e 134 992
e 134 612
e 134 600
e 134 607
e 135 848
e 135 932
e 135 153
e 135 910
e 136 681
e 136 598
e 136 556
e 136 203
e 136 473
e 137 453
e 137 460
e 137 725
e 137 801
e 137 214
e 138 673
e 138 592
e 138 655
e 138 184
e 139 322
e 139 599
e 139 986
e 140 791
e 140 453
e 141 702
e 141 197
e 141 686
e 142 880
e 142 433
e 142 645
e 142 815
e 144 253
e 144 424
e 145 268
e 145 680
e 145 572
e 145 677
e 147 209
e 147 201
e 147 900
e 148 415
e 148 582
e 148 759
e 149 548
e 149 394
e 149 430
e 149 877
e 149 808
e 150 684
e 150 176
e 150 283
e 150 623
e 150 261
e 150 347
e 150 538
e 150 225
e 151 725
e 151 606
e 151 644
e 152 380
e 152 184
e 153 369
e 153 237
e 153 820
e 154 644
e 154 592
e 154 180
e 154 829
e 154 904
e 155 889
e 155 848
e 155 429
e 155 422
e 155 490
e 156 896
e 156 266
e 156 784
e 156 625
e 156 208
e 156 430
e 156 319
e 156 298
e 158 245
e 158 807
e 158 338
e 159 676
e 159 677
e 159 755
e 159 424
e 159 571
e 159 349
e 160 903
e 160 745
e 160 969
e 161 774
e 161 815
e 161 464
e 161 476
e 161 952
e 161 377
e 163 675
e 163 289
e 163 378
e 163 975
e 163 945
e 164 428
e 164 830
e 164 172
e 165 490
e 165 756
e 167 905
e 167 324
e 167 340
e 167 575
e 167 599
e 168 756
e 168 880
e 168 396
e 169 872
e 169 405
e 169 394
e 169 387
e 170 484
e 170 298
e 170 241
e 170 533
e 170 601
e 170 199
e 170 755
e 172 379
e 172 775
e 172 790
e 173 999
e 173 250
e 173 328
e 173 463
e 174 773
e 174 949
e 174 607
e 174 917
e 174 241
e 174 772
e 174 878
e 174 941
e 175 611
e 175 863
e 175 327
e 176 785
e 177 511
e 177 604
e 177 398
e 178 857
e 178 305
e 178 607
e 178 901
e 179 196
e 179 283
e 179 429
e 179 390
e 179 331
e 179 440
e 180 945
e 180 651
e 180 293
e 183 941
e 183 967
e 183 243
e 183 798
e 183 558
e 183 851
e 183 996
e 184 245
e 184 699
e 184 740
e 184 818
e 184 463
e 185 877
e 185 928
e 186 848
e 186 191
e 186 450
e 186 510
e 186 322
e 186 994
e 187 718
e 187 958
e 188 283
e 188 975
e 190 598
e 190 232
e 191 545
e 191 944
e 191 735
e 196 850
e 196 378
e 196 917
e 196 921
e 196 276
e 197 811
e 197 271
e 197 768
e 198 211
e 198 647
e 198 699
e 198 849
e 199 669
e 199 392
e 200 436
e 200 726
e 201 1000
e 201 441
e 202 209
e 202 532
e 202 442
e 203 470
e 203 934
e 203 950
e 203 710
e 203 326
e 203 575
e 203 917
e 203 727
e 205 504
e 205 228
e 205 608
e 206 485
e 206 714
e 206 903
e 207 385
e 207 656
e 207 670
e 208 645
e 208 654
e 208 807
e 208 626
e 208 821
e 208 708
e 209 267
e 209 748
e 209 638
e 209 569
e 209 958
e 209 576
e 210 537
e 210 898
e 211 456
e 211 693
e 211 275
e 212 544
e 212 832
e 212 600
e 213 515
e 213 788
e 213 773
e 213 243
e 213 695
e 213 272
e 214 503
e 214 337
e 214 357
e 215 291
e 215 247
e 215 965
e 218 610
e 218 381
e 218 819
e 218 703
e 221 973
e 221 1000
e 221 884
e 222 466
e 222 722
e 222 422
e 222 772
e 222 442
e 223 953
e 223 331
e 223 446
e 224 546
e 224 886
e 225 799
e 225 894
e 225 603
e 225 638
e 227 251
e 227 691
e 227 442
e 227 515
e 227 252
e 227 575
e 228 602
e 228 561
e 228 963
e 228 303
e 232 387
e 233 687
e 233 438
e 233 807
e 234 258
e 234 681
e 235 600
e 235 515
e 235 982
e 235 872
e 235 548
e 236 767
e 236 725
e 236 442
e 236 407
e 236 345
e 237 569
e 237 632
e 237 270
e 237 354
e 238 407
e 238 395
e 238 347
e 241 704
e 241 992
e 243 885
e 243 520
e 243 999
e 244 741
e 244 574
e 244 447
e 244 837
e 244 578
e 245 961
e 245 626
e 245 636
e 245 755
e 245 376
e 247 607
e 247 976
e 247 869
e 247 810
e 250 577
e 250 602
e 250 253
e 250 625
e 251 963
e 251 867
e 251 677
e 252 907
e 252 433
e 252 640
e 252 432
e 252 963
e 253 953
e 253 496
e 253 722
e 253 609
e 257 663
e 257 609
e 257 501
e 258 407
e 260 267
e 260 839
e 260 507
e 260 420
e 261 989
e 261 953
e 262 960
e 262 655
e 262 586
e 262 517
e 265 920
e 265 345
e 265 643
e 265 506
e 265 889
e 266 572
e 266 474
e 266 448
e 267 891
e 267 428
e 267 570
e 268 693
e 268 431
e 269 445
e 269 378
e 269 691
e 269 464
e 269 407
e 269 396
e 269 661
e 270 351
e 270 738
e 270 447
e 270 601
e 271 719
e 271 302
e 271 564
e 272 934
e 272 669
e 272 884
e 272 704
e 272 533
e 272 707
e 275 963
e 275 464
e 275 539
e 276 551
e 276 362
e 276 310
e 277 898
e 277 391
e 277 504
e 281 729
e 281 623
e 281 837
e 281 962
e 283 496
e 283 599
e 284 712
e 284 958
e 284 421
e 284 648
e 284 568
e 285 423
e 285 391
e 286 958
e 286 790
e 286 692
e 286 941
e 286 330
e 287 695
e 287 643
e 287 967
e 289 295
e 289 558
e 289 656
e 289 860
e 289 454
e 291 742
e 291 736
e 291 402
e 291 877
e 291 856
e 292 336
e 292 739
e 293 416
e 293 347
e 293 632
e 294 741
e 294 363
e 294 791
e 296 982
e 296 732
e 297 776
e 297 800
e 297 508
e 298 891
e 298 530
e 298 350
e 298 338
e 298 327
e 302 526
e 302 403
e 302 544
e 303 390
e 303 764
e 303 801
e 303 402
e 305 317
e 305 785
e 305 602
e 305 993
e 307 851
e 307 832
e 307 623
e 307 842
e 308 691
e 308 410
e 309 872
e 309 498
e 309 393
e 309 456
e 310 575
e 310 391
e 310 540
e 310 319
e 311 905
e 311 686
e 312 333
e 312 385
e 312 682
e 312 336
e 313 979
e 313 714
e 313 359
e 314 949
e 314 699
e 314 469
e 315 470
e 315 952
e 315 913
e 315 625
e 316 944
e 316 820
e 316 426
e 317 415
e 317 416
e 317 380
e 319 611
e 319 535
e 319 971
e 319 499
e 321 860
e 321 416
e 321 975
e 321 445
e 322 623
e 322 604
e 323 351
e 323 645
e 323 402
e 324 629
e 324 878
e 324 447
e 324 512
e 324 734
e 325 528
e 325 659
e 326 915
e 326 495
e 326 433
e 327 533
e 328 406
e 328 931
e 328 473
e 329 801
e 329 655
e 329 896
e 330 541
e 330 420
e 330 602
e 330 545
e 331 428
e 332 772
e 332 503
e 332 987
e 333 639
e 333 469
e 335 976
e 335 629
e 335 487
e 336 727
e 336 723
e 336 809
e 336 846
e 337 435
e 337 855
e 338 543
e 338 746
e 339 535
e 339 494
e 339 734
e 339 604
e 339 852
e 340 621
e 340 949
e 340 791
e 341 438
e 341 542
e 341 759
e 341 889
e 345 540
e 345 390
e 345 726
e 345 577
e 347 990
e 347 623
e 347 375
e 347 505
e 347 973
e 347 774
e 347 654
e 349 810
e 349 603
e 349 594
e 349 526
e 350 477
e 350 554
e 350 489
e 350 582
e 351 636
e 351 888
e 351 554
e 352 536
e 352 431
e 352 837
e 352 474
e 352 666
e 352 901
e 354 381
e 354 830
e 355 717
e 355 688
e 356 875
e 356 999
e 356 526
e 357 603
e 357 392
e 357 787
e 357 506
e 358 450
e 358 887
e 358 695
e 358 688
e 359 703
e 359 644
e 361 938
e 361 926
e 361 762
e 362 453
e 362 412
e 362 812
e 362 960
e 362 681
e 362 614
e 362 605
e 363 932
e 363 637
e 363 952
e 365 738
e 365 762
e 366 776
e 366 789
e 366 368
e 366 458
e 366 562
e 368 435
e 368 520
e 368 789
e 368 629
e 368 416
e 368 371
e 369 653
e 371 454
e 371 441
e 371 630
e 371 979
e 372 902
e 372 947
e 372 784
e 373 427
e 373 717
e 375 924
e 375 484
e 376 772
e 376 599
e 376 745
e 376 711
e 376 888
e 376 719
e 377 512
e 377 675
e 377 608
e 377 961
e 378 536
e 378 961
e 378 885
e 379 630
e 379 977
e 379 396
e 379 430
e 379 785
e 380 409
e 380 489
e 380 637
e 380 477
e 381 457
e 384 417
e 384 391
e 384 767
e 385 522
e 385 754
e 385 491
e 387 934
e 388 442
e 388 996
e 390 961
e 390 892
e 391 595
e 391 789
e 391 915
e 391 428
e 392 838
e 392 844
e 392 699
e 393 715
e 393 531
e 393 414
e 393 417
e 394 556
e 394 742
e 394 928
e 395 657
e 395 755
e 396 735
e 396 965
e 398 640
e 398 938
e 398 809
e 398 605
e 398 795
e 399 540
e 399 456
e 399 719
e 399 736
e 399 454
e 402 747
e 402 777
e 402 614
e 403 745
e 405 487
e 405 900
e 405 639
e 405 910
e 406 852
e 406 767
e 407 870
e 407 564
e 407 916
e 407 846
e 407 518
e 409 559
e 409 460
e 409 702
e 409 477
e 410 644
e 410 734
e 412 432
e 412 497
e 414 752
e 414 546
e 415 474
e 415 727
e 415 580
e 415 466
e 416 646
e 416 848
e 416 764
e 416 430
e 416 506
e 416 745
e 417 818
e 417 570
e 417 786
e 417 904
e 417 710
e 417 775
e 417 813
e 419 770
e 419 423
e 419 476
e 420 910
e 420 985
e 420 690
e 421 767
e 421 811
e 421 532
e 421 538
e 422 431
e 422 907
e 422 765
e 423 440
e 423 699
e 424 528
e 424 787
e 424 878
e 426 564
e 426 779
e 426 663
e 426 771
e 427 472
e 428 838
e 428 675
e 428 896
e 428 574
e 429 838
e 430 437
e 431 680
e 432 791
e 433 498
e 433 468
e 433 713
e 433 660
e 435 850
e 435 699
e 435 919
e 435 732
e 435 891
e 436 648
e 436 698
e 436 644
e 437 453
e 438 752
e 438 690
e 438 643
e 438 863
e 439 580
e 439 643
e 441 621
e 442 713
e 442 846
e 444 477
e 444 900
e 445 705
e 446 858
e 447 587
e 447 574
e 448 476
e 448 747
e 448 489
e 450 737
e 452 478
e 452 717
e 452 928
e 453 947
e 453 759
e 453 870
e 453 973
e 454 685
e 455 739
e 455 630
e 455 698
e 456 596
e 456 951
e 457 798
e 457 770
e 457 967
e 458 934
e 458 630
e 459 571
e 459 525
e 459 646
e 460 687
e 461 485
e 461 536
e 461 743
e 463 785
e 463 950
e 464 875
e 464 540
e 466 479
e 466 607
e 466 503
e 467 839
e 467 640
e 467 547
e 467 947
e 467 621
e 467 627
e 467 811
e 468 971
e 468 562
e 468 989
e 469 726
e 469 827
e 469 856
e 470 568
e 470 517
e 470 930
e 472 555
e 472 522
e 472 811
e 472 781
e 473 559
e 474 586
e 476 779
e 476 904
e 477 701
e 477 605
e 477 944
e 478 648
e 479 767
e 479 864
e 481 776
e 481 554
e 481 715
e 481 898
e 483 961
e 483 537
e 484 764
e 484 669
e 484 539
e 485 704
e 485 568
e 487 632
e 487 795
e 487 699
e 487 885
e 488 608
e 488 981
e 488 808
e 488 489
e 489 934
e 489 591
e 489 850
e 490 705
e 490 600
e 490 829
e 490 721
e 490 835
e 491 992
e 491 607
e 494 714
e 494 995
e 494 602
e 495 981
e 495 663
e 495 531
e 495 598
e 496 916
e 496 752
e 496 918
e 496 800
e 496 813
e 497 913
e 497 964
e 497 785
e 497 873
e 498 732
e 498 930
e 499 785
e 499 911
e 501 561
e 501 856
e 501 594
e 502 839
e 502 506
e 502 525
e 503 596
e 504 570
e 505 547
e 505 720
e 507 510
e 507 945
e 507 701
e 507 575
e 508 614
e 510 738
e 511 888
e 511 965
e 511 710
e 511 574
e 511 957
e 511 911
e 511 788
e 512 970
e 514 812
e 515 580
e 515 912
e 515 668
e 515 735
e 515 770
e 515 756
e 518 713
e 520 902
e 520 544
e 522 608
e 522 737
e 522 879
e 522 676
e 523 625
e 525 928
e 526 663
e 528 940
e 528 822
e 530 764
e 530 739
e 530 800
e 530 891
e 531 976
e 531 584
e 532 591
e 532 962
e 533 873
e 533 647
e 533 944
e 535 676
e 535 979
e 535 648
e 536 921
e 536 695
e 536 587
e 537 659
e 537 964
e 537 859
e 538 603
e 538 740
e 538 951
e 539 748
e 539 601
e 539 952
e 540 976
e 540 996
e 540 728
e 542 732
e 542 970
e 542 609
e 543 584
e 543 567
e 544 919
e 544 783
e 544 661
e 545 762
e 545 877
e 546 979
e 547 935
e 548 905
e 551 729
e 552 813
e 552 766
e 552 692
e 552 975
e 554 945
e 554 892
e 555 588
e 555 686
e 556 648
e 558 957
e 558 879
e 559 835
e 559 995
e 561 738
e 562 938
e 563 916
e 563 739
e 563 656
e 564 960
e 564 842
e 564 614
e 567 676
e 568 938
e 569 815
e 571 971
e 572 627
e 573 790
e 573 580
e 574 660
e 574 684
e 574 682
e 574 619
e 574 589
e 574 673
e 575 931
e 575 917
e 576 837
e 576 963
e 576 759
e 576 725
e 576 577
e 576 775
e 577 771
e 577 888
e 578 748
e 578 860
e 578 625
e 580 982
e 582 838
e 582 766
e 582 822
e 584 869
e 584 827
e 584 788
e 586 715
e 586 636
e 587 723
e 588 737
e 588 809
e 589 869
e 589 614
e 591 807
e 591 965
e 594 719
e 595 646
e 595 723
e 596 622
e 596 940
e 599 830
e 599 728
e 600 912
e 601 788
e 601 912
e 602 787
e 602 863
e 602 987
e 602 675
e 603 904
e 604 940
e 605 962
e 605 993
e 605 608
e 605 979
e 606 707
e 606 751
e 607 852
e 609 872
e 610 669
e 610 971
e 610 753
e 611 721
e 611 830
e 611 627
e 611 822
e 611 891
e 612 626
e 612 842
e 613 621
e 613 622
e 614 915
e 614 787
e 619 964
e 621 957
e 621 659
e 621 963
e 621 872
e 622 776
e 623 626
e 625 762
e 626 726
e 627 785
e 629 653
e 632 708
e 634 857
e 634 973
e 634 864
e 635 882
e 635 788
e 635 920
e 635 867
e 637 639
e 638 673
e 638 801
e 639 880
e 639 846
e 640 653
e 643 913
e 644 670
e 644 668
e 645 838
e 645 902
e 646 975
e 647 719
e 647 921
e 647 963
e 648 799
e 651 745
e 651 741
e 653 962
e 653 886
e 653 822
e 653 684
e 653 711
e 653 665
e 654 766
e 654 849
e 654 907
e 655 869
e 655 838
e 656 698
e 656 769
e 656 685
e 657 952
e 657 998
e 659 995
e 659 797
e 659 865
e 663 798
e 663 878
e 665 797
e 666 921
e 668 982
e 668 977
e 668 923
e 669 838
e 669 894
e 670 698
e 670 707
e 672 949
e 672 900
e 673 844
e 673 801
e 680 769
e 680 952
e 681 762
e 681 987
e 684 1000
e 685 875
e 685 994
e 685 864
e 686 1000
e 688 790
e 688 746
e 690 963
e 690 789
e 692 771
e 692 885
e 692 976
e 692 886
e 693 898
e 693 865
e 693 797
e 695 977
e 697 1000
e 698 912
e 702 738
e 702 953
e 703 772
e 705 1000
e 707 764
e 707 931
e 707 876
e 708 799
e 711 759
e 712 844
e 715 918
e 715 725
e 715 971
e 715 993
e 718 740
e 718 963
e 719 967
e 720 926
e 721 935
e 721 912
e 723 913
e 723 911
e 723 810
e 726 734
e 726 947
e 726 971
e 726 891
e 730 884
e 732 915
e 732 798
e 734 876
e 734 751
e 735 981
e 736 979
e 736 952
e 739 773
e 740 874
e 740 942
e 742 875
e 742 969
e 743 983
e 743 779
e 743 936
e 745 829
e 746 989
e 747 953
e 748 930
e 748 863
e 749 789
e 749 994
e 749 812
e 751 967
e 752 994
e 752 996
e 752 923
e 752 795
e 754 756
e 754 882
e 756 946
e 759 902
e 764 811
e 764 820
e 765 886
e 765 949
e 766 892
e 767 837
e 767 878
e 767 952
e 768 795
e 768 972
e 769 819
e 769 951
e 770 946
e 771 999
e 772 971
e 772 892
e 774 851
e 774 979
e 775 924
e 775 999
e 776 921
e 776 902
e 777 913
e 777 924
e 779 986
e 783 784
e 783 821
e 786 892
e 786 973
e 787 949
e 788 838
e 789 862
e 790 881
e 791 822
e 797 905
e 799 936
e 800 820
e 801 828
e 807 865
e 808 819
e 808 996
e 809 972
e 809 996
e 812 835
e 815 940
e 819 887
e 820 967
e 821 863
e 822 845
e 827 918
e 827 952
e 828 885
e 828 851
e 829 942
e 831 860
e 831 967
e 837 842
e 838 882
e 838 987
e 842 880
e 844 896
e 844 969
e 844 876
e 845 886
e 845 915
e 846 961
e 849 925
e 850 945
e 850 913
e 850 864
e 853 877
e 853 892
e 855 950
e 855 881
e 855 952
e 856 873
e 857 946
e 858 884
e 859 998
e 860 935
e 862 942
e 867 957
e 867 905
e 870 996
e 872 891
e 873 881
e 874 903
e 879 886
e 879 977
e 891 919
e 896 936
e 898 993
e 898 990
e 921 967
e 923 969
e 925 928
e 944 992
e 958 993
e 963 992
e 979 989
