txt_Ins/graph-1000-195.txt
n 1000
e 0 326
e 0 155
e 0 197
e 0 731
e 1 538
e 1 111
e 1 711
e 1 423
e 1 364
e 3 478
e 3 121
e 3 261
e 3 350
e 3 877
e 5 312
e 5 324
e 5 502
e 6 334
e 6 173
e 6 591
e 7 505
e 7 513
e 7 638
e 7 660
e 7 729
e 8 516
e 8 483
e 8 394
e 8 160
e 8 199
e 8 463
e 9 338
e 9 914
e 9 16
e 9 179
e 10 993
e 10 857
e 10 814
e 10 449
e 10 607
e 11 439
e 11 86
e 11 886
e 11 831
e 11 547
e 11 834
e 11 650
e 12 163
e 12 686
e 12 541
e 12 997
e 13 432
e 13 240
e 13 49
e 15 507
e 15 703
e 15 358
e 15 680
e 16 826
e 16 294
e 16 883
e 16 414
e 16 786
e 18 391
e 18 340
e 18 624
e 18 569
e 18 700
e 18 970
e 19 689
e 19 590
e 19 205
e 20 680
e 20 418
e 20 506
e 20 931
e 20 285
e 20 53
e 20 387
e 21 873
e 21 736
e 21 186
e 21 96
e 21 286
e 21 490
e 21 665
e 21 178
e 23 817
e 23 183
e 23 709
e 23 778
e 23 918
e 24 259
e 24 949
e 24 295
e 24 223
e 24 274
e 24 689
e 24 513
e 24 128
e 25 294
e 25 939
e 25 659
e 25 745
e 25 124
e 26 297
e 26 858
e 26 311
e 26 49
e 26 372
e 26 397
e 26 517
e 27 39
e 27 285
e 27 764
e 27 925
e 30 47
e 30 336
e 30 138
e 30 566
e 32 61
e 32 597
e 32 714
e 33 217
e 33 672
e 33 758
e 34 984
e 34 182
e 34 601
e 34 748
e 34 459
e 35 514
e 35 872
e 35 696
e 35 890
e 35 971
e 37 143
e 37 919
e 37 119
e 37 386
e 37 604
e 37 393
e 37 469
e 38 975
e 38 696
e 38 129
e 38 92
e 38 368
e 39 686
e 39 113
e 39 830
e 39 831
e 40 854
e 40 719
e 40 764
e 40 726
e 40 112
e 40 498
e 41 728
e 41 769
e 41 340
e 43 504
e 43 234
e 43 467
e 43 378
e 43 737
e 43 780
e 46 291
e 46 789
e 46 141
e 47 118
e 47 566
e 47 859
e 48 92
e 48 271
e 48 621
e 48 644
e 49 999
e 49 62
e 50 354
e 50 531
e 50 250
e 50 736
e 50 147
e 50 754
e 51 505
e 51 527
e 51 811
e 52 598
e 52 250
e 52 184
e 52 819
e 52 524
e 52 306
e 53 910
e 53 309
e 53 729
e 55 910
e 55 540
e 55 445
e 55 997
e 55 924
e 56 659
e 56 124
e 56 704
e 56 426
e 56 887
e 56 573
e 57 291
e 57 986
e 57 136
e 57 656
e 58 658
e 58 79
e 58 325
e 58 198
e 58 937
e 58 900
e 59 710
e 59 113
e 59 598
e 59 748
e 61 93
e 61 963
e 61 232
e 61 111
e 61 721
e 61 139
e 61 137
e 61 540
e 61 713
e 62 914
e 62 671
e 63 694
e 63 989
e 63 436
e 63 482
e 66 406
e 66 817
e 66 164
e 66 330
e 66 587
e 67 957
e 67 99
e 67 430
e 68 664
e 68 210
e 68 163
e 68 139
e 68 645
e 68 567
e 68 850
e 70 257
e 70 411
e 70 368
e 70 98
e 73 233
e 73 284
e 73 522
e 75 575
e 75 664
e 75 276
e 75 672
e 76 391
e 76 115
e 76 985
e 76 753
e 76 428
e 76 849
e 77 713
e 77 133
e 77 980
e 79 866
e 79 922
e 80 934
e 80 646
e 80 197
e 80 982
e 81 430
e 81 945
e 81 432
e 81 893
e 81 404
e 81 752
e 83 854
e 83 667
e 83 669
e 84 338
e 84 626
e 84 462
e 84 445
e 85 374
e 85 959
e 85 390
e 86 118
e 86 88
e 86 809
e 87 419
e 87 591
e 87 576
e 87 818
e 88 807
e 88 672
e 88 336
e 88 209
e 88 747
e 89 231
e 89 168
e 89 780
e 89 698
e 89 770
e 89 173
e 89 662
e 91 885
e 91 522
e 91 767
e 91 702
e 92 375
e 92 108
e 92 874
e 92 391
e 92 286
e 92 586
e 92 672
e 93 111
e 93 919
e 93 812
e 93 740
e 93 130
e 93 637
e 94 284
e 94 489
e 94 477
e 94 982
e 94 686
e 94 131
e 94 684
e 95 358
e 95 429
e 95 763
e 95 323
e 95 443
e 95 132
e 96 324
e 96 139
e 96 563
e 96 148
e 96 213
e 96 722
e 97 163
e 97 773
e 97 288
e 97 507
e 98 747
e 98 291
e 98 250
e 98 831
e 98 340
e 99 283
e 99 650
e 99 902
e 99 173
e 101 656
e 101 590
e 101 737
e 103 516
e 103 157
e 103 529
e 104 488
e 104 431
e 104 969
e 104 437
e 106 727
e 106 387
e 106 924
e 106 310
e 106 550
e 106 638
e 106 483
e 107 151
e 107 177
e 107 301
e 107 348
e 107 930
e 107 189
e 108 991
e 108 794
e 111 897
e 111 288
e 111 560
e 112 134
e 112 469
e 112 607
e 112 775
e 112 572
e 113 166
e 113 984
e 115 579
e 115 618
e 115 387
e 115 739
e 115 376
e 115 409
e 115 137
e 116 861
e 116 799
e 116 402
e 116 551
e 116 681
e 118 620
e 119 952
e 119 536
e 119 598
e 119 449
e 119 612
e 120 864
e 120 660
e 120 579
e 120 202
e 120 593
e 121 202
e 121 234
e 121 570
e 121 177
e 121 784
e 122 862
e 122 752
e 122 476
e 122 270
e 122 496
e 122 311
e 122 690
e 122 970
e 124 676
e 124 307
e 124 304
e 124 766
e 125 456
e 125 511
e 125 290
e 125 344
e 126 754
e 126 541
e 126 668
e 127 735
e 127 148
e 127 935
e 128 806
e 128 198
e 128 438
e 128 445
e 128 783
e 128 808
e 128 620
e 128 500
e 129 158
e 129 692
e 129 550
e 129 668
e 130 963
e 130 175
e 130 597
e 130 293
e 130 160
e 130 951
e 131 206
e 131 187
e 131 139
e 131 923
e 131 190
e 132 139
e 132 877
e 132 871
e 132 537
e 133 852
e 133 587
e 133 991
e 133 611
e 133 599
e 133 606
e 134 847
e 134 931
e 134 152
e 134 909
e 135 680
e 135 597
e 135 555
e 135 202
e 135 472
e 136 452
e 136 459
e 136 724
e 136 800
e 136 213
e 137 672
e 137 591
e 137 654
e 137 183
e 138 321
e 138 598
e 138 985
e 139 790
e 139 452
e 140 701
e 140 196
e 140 685
e 141 879
e 141 432
e 141 644
e 141 814
e 143 252
e 143 423
e 144 267
e 144 679
e 144 571
e 144 676
e 146 208
e 146 200
e 146 899
e 147 414
e 147 581
e 147 758
e 148 547
e 148 393
e 148 429
e 148 876
e 148 807
e 149 683
e 149 175
e 149 282
e 149 622
e 149 260
e 149 346
e 149 537
e 149 224
e 150 724
e 150 605
e 150 643
e 151 379
e 151 183
e 152 368
e 152 236
e 152 819
e 153 643
e 153 591
e 153 179
e 153 828
e 153 903
e 154 888
e 154 847
e 154 428
e 154 421
e 154 489
e 155 895
e 155 265
e 155 783
e 155 624
e 155 207
e 155 429
e 155 318
e 155 297
e 157 244
e 157 806
e 157 337
e 158 675
e 158 676
e 158 754
e 158 423
e 158 570
e 158 348
e 159 902
e 159 744
e 159 968
e 160 773
e 160 814
e 160 463
e 160 475
e 160 951
e 160 376
e 162 674
e 162 288
e 162 377
e 162 974
e 162 944
e 163 427
e 163 829
e 163 171
e 164 489
e 164 755
e 166 904
e 166 323
e 166 339
e 166 574
e 166 598
e 167 755
e 167 879
e 167 395
e 168 871
e 168 404
e 168 393
e 168 386
e 169 483
e 169 297
e 169 240
e 169 532
e 169 600
e 169 198
e 169 754
e 171 378
e 171 774
e 171 789
e 172 998
e 172 249
e 172 327
e 172 462
e 173 772
e 173 948
e 173 606
e 173 916
e 173 240
e 173 771
e 173 877
e 173 940
e 174 610
e 174 862
e 174 326
e 175 784
e 176 510
e 176 603
e 176 397
e 177 856
e 177 304
e 177 606
e 177 900
e 178 195
e 178 282
e 178 428
e 178 389
e 178 330
e 178 439
e 179 944
e 179 650
e 179 292
e 182 940
e 182 966
e 182 242
e 182 797
e 182 557
e 182 850
e 182 995
e 183 244
e 183 698
e 183 739
e 183 817
e 183 462
e 184 876
e 184 927
e 185 847
e 185 190
e 185 449
e 185 509
e 185 321
e 185 993
e 186 717
e 186 957
e 187 282
e 187 974
e 189 597
e 189 231
e 190 544
e 190 943
e 190 734
e 195 849
e 195 377
e 195 916
e 195 920
e 195 275
e 196 810
e 196 270
e 196 767
e 197 210
e 197 646
e 197 698
e 197 848
e 198 668
e 198 391
e 199 435
e 199 725
e 200 999
e 200 440
e 201 208
e 201 531
e 201 441
e 202 469
e 202 933
e 202 949
e 202 709
e 202 325
e 202 574
e 202 916
e 202 726
e 204 503
e 204 227
e 204 607
e 205 484
e 205 713
e 205 902
e 206 384
e 206 655
e 206 669
e 207 644
e 207 653
e 207 806
e 207 625
e 207 820
e 207 707
e 208 266
e 208 747
e 208 637
e 208 568
e 208 957
e 208 575
e 209 536
e 209 897
e 210 455
e 210 692
e 210 274
e 211 543
e 211 831
e 211 599
e 212 514
e 212 787
e 212 772
e 212 242
e 212 694
e 212 271
e 213 502
e 213 336
e 213 356
e 214 290
e 214 246
e 214 964
e 217 609
e 217 380
e 217 818
e 217 702
e 220 972
e 220 999
e 220 883
e 221 465
e 221 721
e 221 421
e 221 771
e 221 441
e 222 952
e 222 330
e 222 445
e 223 545
e 223 885
e 224 798
e 224 893
e 224 602
e 224 637
e 226 250
e 226 690
e 226 441
e 226 514
e 226 251
e 226 574
e 227 601
e 227 560
e 227 962
e 227 302
e 231 386
e 232 686
e 232 437
e 232 806
e 233 257
e 233 680
e 234 599
e 234 514
e 234 981
e 234 871
e 234 547
e 235 766
e 235 724
e 235 441
e 235 406
e 235 344
e 236 568
e 236 631
e 236 269
e 236 353
e 237 406
e 237 394
e 237 346
e 240 703
e 240 991
e 242 884
e 242 519
e 242 998
e 243 740
e 243 573
e 243 446
e 243 836
e 243 577
e 244 960
e 244 625
e 244 635
e 244 754
e 244 375
e 246 606
e 246 975
e 246 868
e 246 809
e 249 576
e 249 601
e 249 252
e 249 624
e 250 962
e 250 866
e 250 676
e 251 906
e 251 432
e 251 639
e 251 431
e 251 962
e 252 952
e 252 495
e 252 721
e 252 608
e 256 662
e 256 608
e 256 500
e 257 406
e 259 266
e 259 838
e 259 506
e 259 419
e 260 988
e 260 952
e 261 959
e 261 654
e 261 585
e 261 516
e 264 919
e 264 344
e 264 642
e 264 505
e 264 888
e 265 571
e 265 473
e 265 447
e 266 890
e 266 427
e 266 569
e 267 692
e 267 430
e 268 444
e 268 377
e 268 690
e 268 463
e 268 406
e 268 395
e 268 660
e 269 350
e 269 737
e 269 446
e 269 600
e 270 718
e 270 301
e 270 563
e 271 933
e 271 668
e 271 883
e 271 703
e 271 532
e 271 706
e 274 962
e 274 463
e 274 538
e 275 550
e 275 361
e 275 309
e 276 897
e 276 390
e 276 503
e 280 728
e 280 622
e 280 836
e 280 961
e 282 495
e 282 598
e 283 711
e 283 957
e 283 420
e 283 647
e 283 567
e 284 422
e 284 390
e 285 957
e 285 789
e 285 691
e 285 940
e 285 329
e 286 694
e 286 642
e 286 966
e 288 294
e 288 557
e 288 655
e 288 859
e 288 453
e 290 741
e 290 735
e 290 401
e 290 876
e 290 855
e 291 335
e 291 738
e 292 415
e 292 346
e 292 631
e 293 740
e 293 362
e 293 790
e 295 981
e 295 731
e 296 775
e 296 799
e 296 507
e 297 890
e 297 529
e 297 349
e 297 337
e 297 326
e 301 525
e 301 402
e 301 543
e 302 389
e 302 763
e 302 800
e 302 401
e 304 316
e 304 784
e 304 601
e 304 992
e 306 850
e 306 831
e 306 622
e 306 841
e 307 690
e 307 409
e 308 871
e 308 497
e 308 392
e 308 455
e 309 574
e 309 390
e 309 539
e 309 318
e 310 904
e 310 685
e 311 332
e 311 384
e 311 681
e 311 335
e 312 978
e 312 713
e 312 358
e 313 948
e 313 698
e 313 468
e 314 469
e 314 951
e 314 912
e 314 624
e 315 943
e 315 819
e 315 425
e 316 414
e 316 415
e 316 379
e 318 610
e 318 534
e 318 970
e 318 498
e 320 859
e 320 415
e 320 974
e 320 444
e 321 622
e 321 603
e 322 350
e 322 644
e 322 401
e 323 628
e 323 877
e 323 446
e 323 511
e 323 733
e 324 527
e 324 658
e 325 914
e 325 494
e 325 432
e 326 532
e 327 405
e 327 930
e 327 472
e 328 800
e 328 654
e 328 895
e 329 540
e 329 419
e 329 601
e 329 544
e 330 427
e 331 771
e 331 502
e 331 986
e 332 638
e 332 468
e 334 975
e 334 628
e 334 486
e 335 726
e 335 722
e 335 808
e 335 845
e 336 434
e 336 854
e 337 542
e 337 745
e 338 534
e 338 493
e 338 733
e 338 603
e 338 851
e 339 620
e 339 948
e 339 790
e 340 437
e 340 541
e 340 758
e 340 888
e 344 539
e 344 389
e 344 725
e 344 576
e 346 989
e 346 622
e 346 374
e 346 504
e 346 972
e 346 773
e 346 653
e 348 809
e 348 602
e 348 593
e 348 525
e 349 476
e 349 553
e 349 488
e 349 581
e 350 635
e 350 887
e 350 553
e 351 535
e 351 430
e 351 836
e 351 473
e 351 665
e 351 900
e 353 380
e 353 829
e 354 716
e 354 687
e 355 874
e 355 998
e 355 525
e 356 602
e 356 391
e 356 786
e 356 505
e 357 449
e 357 886
e 357 694
e 357 687
e 358 702
e 358 643
e 360 937
e 360 925
e 360 761
e 361 452
e 361 411
e 361 811
e 361 959
e 361 680
e 361 613
e 361 604
e 362 931
e 362 636
e 362 951
e 364 737
e 364 761
e 365 775
e 365 788
e 365 367
e 365 457
e 365 561
e 367 434
e 367 519
e 367 788
e 367 628
e 367 415
e 367 370
e 368 652
e 370 453
e 370 440
e 370 629
e 370 978
e 371 901
e 371 946
e 371 783
e 372 426
e 372 716
e 374 923
e 374 483
e 375 771
e 375 598
e 375 744
e 375 710
e 375 887
e 375 718
e 376 511
e 376 674
e 376 607
e 376 960
e 377 535
e 377 960
e 377 884
e 378 629
e 378 976
e 378 395
e 378 429
e 378 784
e 379 408
e 379 488
e 379 636
e 379 476
e 380 456
e 383 416
e 383 390
e 383 766
e 384 521
e 384 753
e 384 490
e 386 933
e 387 441
e 387 995
e 389 960
e 389 891
e 390 594
e 390 788
e 390 914
e 390 427
e 391 837
e 391 843
e 391 698
e 392 714
e 392 530
e 392 413
e 392 416
e 393 555
e 393 741
e 393 927
e 394 656
e 394 754
e 395 734
e 395 964
e 397 639
e 397 937
e 397 808
e 397 604
e 397 794
e 398 539
e 398 455
e 398 718
e 398 735
e 398 453
e 401 746
e 401 776
e 401 613
e 402 744
e 404 486
e 404 899
e 404 638
e 404 909
e 405 851
e 405 766
e 406 869
e 406 563
e 406 915
e 406 845
e 406 517
e 408 558
e 408 459
e 408 701
e 408 476
e 409 643
e 409 733
e 411 431
e 411 496
e 413 751
e 413 545
e 414 473
e 414 726
e 414 579
e 414 465
e 415 645
e 415 847
e 415 763
e 415 429
e 415 505
e 415 744
e 416 817
e 416 569
e 416 785
e 416 903
e 416 709
e 416 774
e 416 812
e 418 769
e 418 422
e 418 475
e 419 909
e 419 984
e 419 689
e 420 766
e 420 810
e 420 531
e 420 537
e 421 430
e 421 906
e 421 764
e 422 439
e 422 698
e 423 527
e 423 786
e 423 877
e 425 563
e 425 778
e 425 662
e 425 770
e 426 471
e 427 837
e 427 674
e 427 895
e 427 573
e 428 837
e 429 436
e 430 679
e 431 790
e 432 497
e 432 467
e 432 712
e 432 659
e 434 849
e 434 698
e 434 918
e 434 731
e 434 890
e 435 647
e 435 697
e 435 643
e 436 452
e 437 751
e 437 689
e 437 642
e 437 862
e 438 579
e 438 642
e 440 620
e 441 712
e 441 845
e 443 476
e 443 899
e 444 704
e 445 857
e 446 586
e 446 573
e 447 475
e 447 746
e 447 488
e 449 736
e 451 477
e 451 716
e 451 927
e 452 946
e 452 758
e 452 869
e 452 972
e 453 684
e 454 738
e 454 629
e 454 697
e 455 595
e 455 950
e 456 797
e 456 769
e 456 966
e 457 933
e 457 629
e 458 570
e 458 524
e 458 645
e 459 686
e 460 484
e 460 535
e 460 742
e 462 784
e 462 949
e 463 874
e 463 539
e 465 478
e 465 606
e 465 502
e 466 838
e 466 639
e 466 546
e 466 946
e 466 620
e 466 626
e 466 810
e 467 970
e 467 561
e 467 988
e 468 725
e 468 826
e 468 855
e 469 567
e 469 516
e 469 929
e 471 554
e 471 521
e 471 810
e 471 780
e 472 558
e 473 585
e 475 778
e 475 903
e 476 700
e 476 604
e 476 943
e 477 647
e 478 766
e 478 863
e 480 775
e 480 553
e 480 714
e 480 897
e 482 960
e 482 536
e 483 763
e 483 668
e 483 538
e 484 703
e 484 567
e 486 631
e 486 794
e 486 698
e 486 884
e 487 607
e 487 980
e 487 807
e 487 488
e 488 933
e 488 590
e 488 849
e 489 704
e 489 599
e 489 828
e 489 720
e 489 834
e 490 991
e 490 606
e 493 713
e 493 994
e 493 601
e 494 980
e 494 662
e 494 530
e 494 597
e 495 915
e 495 751
e 495 917
e 495 799
e 495 812
e 496 912
e 496 963
e 496 784
e 496 872
e 497 731
e 497 929
e 498 784
e 498 910
e 500 560
e 500 855
e 500 593
e 501 838
e 501 505
e 501 524
e 502 595
e 503 569
e 504 546
e 504 719
e 506 509
e 506 944
e 506 700
e 506 574
e 507 613
e 509 737
e 510 887
e 510 964
e 510 709
e 510 573
e 510 956
e 510 910
e 510 787
e 511 969
e 513 811
e 514 579
e 514 911
e 514 667
e 514 734
e 514 769
e 514 755
e 517 712
e 519 901
e 519 543
e 521 607
e 521 736
e 521 878
e 521 675
e 522 624
e 524 927
e 525 662
e 527 939
e 527 821
e 529 763
e 529 738
e 529 799
e 529 890
e 530 975
e 530 583
e 531 590
e 531 961
e 532 872
e 532 646
e 532 943
e 534 675
e 534 978
e 534 647
e 535 920
e 535 694
e 535 586
e 536 658
e 536 963
e 536 858
e 537 602
e 537 739
e 537 950
e 538 747
e 538 600
e 538 951
e 539 975
e 539 995
e 539 727
e 541 731
e 541 969
e 541 608
e 542 583
e 542 566
e 543 918
e 543 782
e 543 660
e 544 761
e 544 876
e 545 978
e 546 934
e 547 904
e 550 728
e 551 812
e 551 765
e 551 691
e 551 974
e 553 944
e 553 891
e 554 587
e 554 685
e 555 647
e 557 956
e 557 878
e 558 834
e 558 994
e 560 737
e 561 937
e 562 915
e 562 738
e 562 655
e 563 959
e 563 841
e 563 613
e 566 675
e 567 937
e 568 814
e 570 970
e 571 626
e 572 789
e 572 579
e 573 659
e 573 683
e 573 681
e 573 618
e 573 588
e 573 672
e 574 930
e 574 916
e 575 836
e 575 962
e 575 758
e 575 724
e 575 576
e 575 774
e 576 770
e 576 887
e 577 747
e 577 859
e 577 624
e 579 981
e 581 837
e 581 765
e 581 821
e 583 868
e 583 826
e 583 787
e 585 714
e 585 635
e 586 722
e 587 736
e 587 808
e 588 868
e 588 613
e 590 806
e 590 964
e 593 718
e 594 645
e 594 722
e 595 621
e 595 939
e 598 829
e 598 727
e 599 911
e 600 787
e 600 911
e 601 786
e 601 862
e 601 986
e 601 674
e 602 903
e 603 939
e 604 961
e 604 992
e 604 607
e 604 978
e 605 706
e 605 750
e 606 851
e 608 871
e 609 668
e 609 970
e 609 752
e 610 720
e 610 829
e 610 626
e 610 821
e 610 890
e 611 625
e 611 841
e 612 620
e 612 621
e 613 914
e 613 786
e 618 963
e 620 956
e 620 658
e 620 962
e 620 871
e 621 775
e 622 625
e 624 761
e 625 725
e 626 784
e 628 652
e 631 707
e 633 856
e 633 972
e 633 863
e 634 881
e 634 787
e 634 919
e 634 866
e 636 638
e 637 672
e 637 800
e 638 879
e 638 845
e 639 652
e 642 912
e 643 669
e 643 667
e 644 837
e 644 901
e 645 974
e 646 718
e 646 920
e 646 962
e 647 798
e 650 744
e 650 740
e 652 961
e 652 885
e 652 821
e 652 683
e 652 710
e 652 664
e 653 765
e 653 848
e 653 906
e 654 868
e 654 837
e 655 697
e 655 768
e 655 684
e 656 951
e 656 997
e 658 994
e 658 796
e 658 864
e 662 797
e 662 877
e 664 796
e 665 920
e 667 981
e 667 976
e 667 922
e 668 837
e 668 893
e 669 697
e 669 706
e 671 948
e 671 899
e 672 843
e 672 800
e 679 768
e 679 951
e 680 761
e 680 986
e 683 999
e 684 874
e 684 993
e 684 863
e 685 999
e 687 789
e 687 745
e 689 962
e 689 788
e 691 770
e 691 884
e 691 975
e 691 885
e 692 897
e 692 864
e 692 796
e 694 976
e 696 999
e 697 911
e 701 737
e 701 952
e 702 771
e 704 999
e 706 763
e 706 930
e 706 875
e 707 798
e 710 758
e 711 843
e 714 917
e 714 724
e 714 970
e 714 992
e 717 739
e 717 962
e 718 966
e 719 925
e 720 934
e 720 911
e 722 912
e 722 910
e 722 809
e 725 733
e 725 946
e 725 970
e 725 890
e 729 883
e 731 914
e 731 797
e 733 875
e 733 750
e 734 980
e 735 978
e 735 951
e 738 772
e 739 873
e 739 941
e 741 874
e 741 968
e 742 982
e 742 778
e 742 935
e 744 828
e 745 988
e 746 952
e 747 929
e 747 862
e 748 788
e 748 993
e 748 811
e 750 966
e 751 993
e 751 995
e 751 922
e 751 794
e 753 755
e 753 881
e 755 945
e 758 901
e 763 810
e 763 819
e 764 885
e 764 948
e 765 891
e 766 836
e 766 877
e 766 951
e 767 794
e 767 971
e 768 818
e 768 950
e 769 945
e 770 998
e 771 970
e 771 891
e 773 850
e 773 978
e 774 923
e 774 998
e 775 920
e 775 901
e 776 912
e 776 923
e 778 985
e 782 783
e 782 820
e 785 891
e 785 972
e 786 948
e 787 837
e 788 861
e 789 880
e 790 821
e 796 904
e 798 935
e 799 819
e 800 827
e 806 864
e 807 818
e 807 995
e 808 971
e 808 995
e 811 834
e 814 939
e 818 886
e 819 966
e 820 862
e 821 844
e 826 917
e 826 951
e 827 884
e 827 850
e 828 941
e 830 859
e 830 966
e 836 841
e 837 881
e 837 986
e 841 879
e 843 895
e 843 968
e 843 875
e 844 885
e 844 914
e 845 960
e 848 924
e 849 944
e 849 912
e 849 863
e 852 876
e 852 891
e 854 949
e 854 880
e 854 951
e 855 872
e 856 945
e 857 883
e 858 997
e 859 934
e 861 941
e 866 956
e 866 904
e 869 995
e 871 890
e 872 880
e 873 902
e 878 885
e 878 976
e 890 918
e 895 935
e 897 992
e 897 989
e 920 966
e 922 968
e 924 927
e 943 991
e 957 992
e 962 991
e 978 988
